
Gurobi 10.0.1 (linux64) logging started Sun Nov 26 16:31:45 2023

Set parameter LogFile to value "ArtificialInstance/ExperimentV2/S4T5K3/AdRo/gurobiSpRo33.txt"
Gurobi Optimizer version 10.0.1 build v10.0.1rc0 (linux64)

CPU model: AMD EPYC 7H12 64-Core Processor, instruction set [SSE2|AVX|AVX2]
Thread count: 128 physical cores, 128 logical processors, using up to 32 threads

Academic license 656792 - for non-commercial use only - registered to b.___@student.vu.nl
Optimize a model with 27254 rows, 25231 columns and 98388 nonzeros
Model fingerprint: 0x2820fb12
Variable types: 1 continuous, 25230 integer (25230 binary)
Coefficient statistics:
  Matrix range     [1e+00, 4e+01]
  Objective range  [1e+00, 2e+01]
  Bounds range     [1e+00, 1e+00]
  RHS range        [1e+00, 1e+00]
Presolve removed 13364 rows and 12526 columns
Presolve time: 0.36s
Presolved: 13890 rows, 12705 columns, 49743 nonzeros
Variable types: 1 continuous, 12704 integer (12704 binary)
Found heuristic solution: objective 92.7315330

Root relaxation: objective 9.162697e+01, 1590 iterations, 0.05 seconds (0.03 work units)

    Nodes    |    Current Node    |     Objective Bounds      |     Work
 Expl Unexpl |  Obj  Depth IntInf | Incumbent    BestBd   Gap | It/Node Time

H    0     0                      91.6269739   77.89022  15.0%     -    0s
     0     0          -    0        91.62697   91.62697  0.00%     -    0s

Explored 1 nodes (2257 simplex iterations) in 0.52 seconds (0.39 work units)
Thread count was 32 (of 128 available processors)

Solution count 2: 91.627 92.7315 

Optimal solution found (tolerance 1.00e-04)
Best objective 9.162697389442e+01, best bound 9.162697389442e+01, gap 0.0000%
